(set-info :smt-lib-version 2.6)
(set-logic QF_S)
(set-info :source |
Generated by: Murphy Berzish, Mitja Kulczynski, Federico Mora, Florin Manea, Joel Day, Dirk Nowotka, Vijay Ganesh, Zhengyang Lu
Generated on: 2020-10-01
Description: Translated from a collection of real-world regex queries, AutomataArk, collected by Loris D’Antoni and Fang Wang: https://github.com/lorisdanto/automatark
Application: Evaluate solvers on real-world regex queries
Target solver: Z3str3RE, CVC4, OSTRICH, Z3seq, Z3str3, Z3-Trau
Publications: Berzish, M., Kulczynski, M., Mora, F., Manea, F., Day, J. D., Nowotka, D., & Ganesh, V. (2021, July). An SMT solver for regular expressions and linear arithmetic over string length. In CAV 2021.
|)
(set-info :license "https://creativecommons.org/licenses/by/4.0/")
(set-info :category "industrial")
(set-info :status unsat)

(declare-const X String)
(assert (str.in_re X (re.++ (re.union (re.++ (re.opt (re.range "0" "1")) (re.range "0" "9")) (re.++ (str.to_re "2") (re.range "0" "3"))) (str.to_re ":") (re.opt (re.++ (str.to_re ":") (re.opt (re.range "0" "5")) (re.range "0" "9"))) (str.to_re "\u{a}") (re.opt (re.range "0" "5")) (re.range "0" "9"))))
(assert (str.in_re X (re.union (str.to_re "714") (str.to_re "760") (str.to_re "949") (str.to_re "619") (str.to_re "909") (str.to_re "951") (str.to_re "818") (str.to_re "310") (str.to_re "323") (str.to_re "213") (str.to_re "323") (str.to_re "562") (re.++ (str.to_re "626-") ((_ re.loop 3 3) (re.range "0" "9")) (str.to_re "-") ((_ re.loop 4 4) (re.range "0" "9")) (str.to_re "\u{a}")))))
(assert (str.in_re X (re.++ (str.to_re "/") ((_ re.loop 4 4) (re.union (re.range " " "~") (str.to_re "\u{d}") (str.to_re "\u{a}"))) (str.to_re "/P\u{a}"))))
(assert (str.in_re X (re.++ (str.to_re "/resolve|") (re.+ (re.range "0" "9")) (str.to_re "|") (re.+ (re.range "0" "9")) (str.to_re "|") (re.+ (re.union (re.range "a" "z") (re.range "0" "9"))) (str.to_re ".") ((_ re.loop 2 3) (re.range "a" "z")) (str.to_re "|") (re.+ (re.union (re.range "a" "z") (re.range "0" "9"))) (str.to_re "|/\u{a}"))))
(assert (not (str.in_re X (re.++ (str.to_re "/User-Agent:") (re.union (str.to_re " ") (str.to_re "\u{9}") (str.to_re "\u{a}") (str.to_re "\u{c}") (str.to_re "\u{d}")) (str.to_re "MSIE") (re.* re.allchar) (str.to_re ";") (re.union (str.to_re " ") (str.to_re "\u{9}") (str.to_re "\u{a}") (str.to_re "\u{c}") (str.to_re "\u{d}")) (str.to_re "NT") (re.* re.allchar) (str.to_re ";") (re.union (str.to_re " ") (str.to_re "\u{9}") (str.to_re "\u{a}") (str.to_re "\u{c}") (str.to_re "\u{d}")) (str.to_re "AV") (re.* re.allchar) (str.to_re ";") (re.union (str.to_re " ") (str.to_re "\u{9}") (str.to_re "\u{a}") (str.to_re "\u{c}") (str.to_re "\u{d}")) (str.to_re "OV") (re.* re.allchar) (str.to_re ";") (re.union (str.to_re " ") (str.to_re "\u{9}") (str.to_re "\u{a}") (str.to_re "\u{c}") (str.to_re "\u{d}")) (str.to_re "NA") (re.* re.allchar) (str.to_re "VR(PH5") re.allchar (str.to_re "0") (re.union (str.to_re " ") (str.to_re "\u{9}") (str.to_re "\u{a}") (str.to_re "\u{c}") (str.to_re "\u{d}")) (str.to_re "W20130912/H\u{a}")))))
(check-sat)

(exit)
